
  22   10
  10   10   10   10   10   10   10   10   10   10

   0   0   0   0   0   0   0   0   0   0   0   1 2 
  10  10  10  10  10  10  10  10  10  10  10   2 5 3 
   5  10  10  10  10  10  10  10  10  10  10   1 4 
   9  10  10  10  10  10  10  10  10  10  10   1 6 
   3  10  10  10  10  10  10  10  10  10  10   1 6 
   6  10  10  10  10  10  10  10  10  10  10   2 8 7 
   5  10  10  10  10  10  10  10  10  10  10   3 17 13 9 
   6  10  10  10  10  10  10  10  10  10  10   4 14 13 12 11 
   4  10  10  10  10  10  10  10  10  10  10   3 14 11 10 
   2  10  10  10  10  10  10  10  10  10  10   1 12 
   2  10  10  10  10  10  10  10  10  10  10   4 21 20 19 18 
  10  10  10  10  10  10  10  10  10  10  10   3 20 19 15 
   8  10  10  10  10  10  10  10  10  10  10   2 20 18 
   6  10  10  10  10  10  10  10  10  10  10   1 16 
   9  10  10  10  10  10  10  10  10  10  10   1 18 
   1  10  10  10  10  10  10  10  10  10  10   1 18 
  10  10  10  10  10  10  10  10  10  10  10   1 19 
   9  10  10  10  10  10  10  10  10  10  10   1 22
   6  10  10  10  10  10  10  10  10  10  10   1 22
   4  10  10  10  10  10  10  10  10  10  10   1 22
   4  10  10  10  10  10  10  10  10  10  10   1 22
   0   0   0   0   0   0   0   0   0   0   0   0 
